c Output_time 26.03.2020 18:13:14_+0100 1585242794698650445
c ** Program information **
c program_name                          "QBRG_debug"
c version                               "0.3.20"
c date                                  "25.3.2020"
c gid_id                                "673970833836058123f633335630c185360d632e"
c author                                "Oliver Kullmann"
c url                                   "https://github.com/OKullmann/oklibrary/blob/master/Satisfiability/Transformers/Generators/Random/QBRG.cpp"
c ** Machine information **
c machine_name                          "chyna-Lenovo-G50-70"
c bogomips                              3791.08
c ** Compilation information **
c compiler_version                      "g++ 7.5.0"
c compilation_date                      "Mar_26_2020 11:16:30"
c compilation_options                   "--std=c++17 -pedantic -fmax-errors=5 -Wall -Wextra -g -D_GLIBCXX_DEBUG"
c NDEBUG                                0
c OPTIMIZE                              0
c ** Parameters **
c command-line                          "./QBRG_debug" "e40 a40 40" "314*1,1|2-2,1|3-3,1" "" "1,t" ""
c output                                "QuBlRaGe_120_314_1585242794563491277.qdimacs"
c options                               "filtered,renamed"
c num_quantifier_blocks                 3
c  quantifier_blocks                    1:e1-40 2:a41-80 3:e81-120
c num_clause-blocks                     1
c  clause-blocks                        314 * {1-40,1,1/2} | {41-80,1,1/2} | {81-120,1,1/2}
c num_e-seeds                           30+2=32
c  e-seeds                              1 0 1 0 4 120 2 40 1 40 0 40 1 314 3 1 1 1 1 2 2 2 1 1 2 3 3 1 1 2 1 1585242794563490685
p cnf 120 314
e 1 2 3 4 5 6 7 8 9 10 11 12 13 14 15 16 17 18 19 20 21 22 23 24 25 26 27 28 29 30 31 32 33 34 35 36 37 38 39 40 0
a 41 42 43 44 45 46 47 48 49 50 51 52 53 54 55 56 57 58 59 60 61 62 63 64 65 66 67 68 69 70 71 72 73 74 75 76 77 78 79 80 0
e 81 82 83 84 85 86 87 88 89 90 91 92 93 94 95 96 97 98 99 100 101 102 103 104 105 106 107 108 109 110 111 112 113 114 115 116 117 118 119 120 0
1 -60 -81 0
-21 67 -81 0
13 -70 -81 0
-28 78 -81 0
21 -52 81 0
-25 73 81 0
8 -43 -82 0
-38 -51 -82 0
8 -57 -82 0
25 -66 -82 0
-23 -75 -82 0
15 49 82 0
-24 64 82 0
-10 70 82 0
-24 71 82 0
-7 43 -83 0
5 -48 -83 0
10 -52 -83 0
27 74 -83 0
24 80 -83 0
25 -45 83 0
15 -46 83 0
-3 41 -84 0
20 -49 -84 0
13 -58 -84 0
-28 -58 -84 0
11 -72 -84 0
-35 -60 84 0
40 66 84 0
-34 79 84 0
-21 -41 -85 0
-26 55 -85 0
21 64 -85 0
18 -73 -85 0
-19 -75 -85 0
-36 -78 -85 0
-26 -47 85 0
-8 -60 85 0
3 77 85 0
13 -49 -86 0
11 -56 -86 0
-5 76 -86 0
-25 52 86 0
26 -72 86 0
10 45 -87 0
37 45 -87 0
-21 49 -87 0
-15 70 -87 0
24 -48 87 0
-35 65 87 0
39 -52 -88 0
-23 44 88 0
1 -53 88 0
-12 72 88 0
35 -51 -89 0
-27 52 -89 0
14 62 -89 0
-10 -72 -89 0
-24 -77 -89 0
27 -43 89 0
31 53 89 0
13 65 89 0
38 71 89 0
-39 78 89 0
22 -51 -90 0
-40 -54 -90 0
36 42 90 0
-31 -52 90 0
34 55 90 0
-13 60 90 0
-30 62 90 0
13 -65 90 0
-34 -71 90 0
20 50 -91 0
26 -53 -91 0
33 62 -91 0
26 79 -91 0
2 56 91 0
18 -69 91 0
-12 77 91 0
34 -80 91 0
-22 43 -92 0
-31 59 -92 0
25 68 -92 0
-10 -69 -92 0
35 -58 92 0
16 62 92 0
10 -66 92 0
-6 70 92 0
-10 -74 92 0
-25 -77 92 0
24 -80 92 0
19 80 92 0
-3 51 -93 0
21 75 -93 0
28 -45 93 0
35 53 93 0
2 48 -94 0
23 -50 -94 0
-10 56 -94 0
-33 54 94 0
31 57 94 0
-9 -59 94 0
-27 -59 94 0
-1 -62 94 0
-33 64 94 0
1 -69 94 0
4 -70 94 0
3 70 94 0
-29 48 -95 0
-24 -64 -95 0
-40 65 -95 0
-26 73 -95 0
-2 -43 95 0
-5 -47 95 0
18 49 95 0
-8 -55 95 0
-5 60 95 0
-9 -68 95 0
-4 79 95 0
35 -45 -96 0
14 62 -96 0
-10 63 -96 0
-29 77 -96 0
32 57 96 0
12 60 96 0
-33 61 96 0
-18 69 96 0
16 73 96 0
18 41 -97 0
-10 47 -97 0
18 -50 -97 0
1 74 -97 0
-3 74 -97 0
3 75 -97 0
-23 75 -97 0
-34 -78 -97 0
23 -59 -98 0
-40 -73 -98 0
-18 73 -98 0
26 -41 98 0
39 -42 98 0
-18 -45 98 0
18 49 98 0
31 -65 98 0
-29 67 98 0
-12 69 98 0
-16 -78 98 0
38 -60 -99 0
-17 62 -99 0
-30 -79 -99 0
-13 -80 -99 0
15 58 99 0
-4 63 99 0
-37 -69 99 0
34 -48 -100 0
3 55 -100 0
18 -47 100 0
-39 72 100 0
-13 43 -101 0
-37 -54 -101 0
-24 56 -101 0
9 66 -101 0
1 -79 -101 0
-6 55 101 0
18 -56 101 0
8 -57 101 0
22 64 101 0
-29 -41 -102 0
18 -45 -102 0
19 74 -102 0
4 41 102 0
14 -69 102 0
-27 42 -103 0
-23 -53 -103 0
33 54 -103 0
6 61 103 0
24 -65 103 0
-33 75 103 0
-38 43 -104 0
-23 -55 -104 0
16 -61 -104 0
23 66 -104 0
-8 -71 -104 0
38 -79 -104 0
-11 -80 -104 0
33 74 104 0
-2 -68 -105 0
-39 52 105 0
-12 -59 105 0
-34 -64 105 0
32 -69 105 0
34 79 105 0
-1 80 105 0
16 -64 -106 0
14 72 -106 0
-23 -74 -106 0
23 75 -106 0
8 -47 106 0
-37 -61 106 0
18 -73 106 0
-28 49 -107 0
-13 -55 -107 0
-28 -64 -107 0
-23 65 -107 0
-6 66 -107 0
27 -74 -107 0
6 42 107 0
-10 -66 107 0
5 79 107 0
22 -46 -108 0
-36 49 -108 0
28 -56 -108 0
-24 74 -108 0
19 -77 -108 0
-15 -58 108 0
-36 61 108 0
36 -70 108 0
24 -71 108 0
-39 -41 -109 0
3 -51 -109 0
21 -61 -109 0
15 -66 -109 0
-3 -68 -109 0
15 73 -109 0
-32 73 -109 0
-10 74 -109 0
-13 50 109 0
-12 -57 109 0
-36 57 109 0
-12 72 109 0
-22 -42 -110 0
16 -68 -110 0
-33 -80 -110 0
28 -54 110 0
27 69 110 0
-37 74 110 0
37 -75 110 0
-36 -41 -111 0
-33 41 -111 0
-6 46 -111 0
-36 64 -111 0
28 78 -111 0
-13 -41 111 0
-27 -41 111 0
-32 56 111 0
-12 -75 111 0
34 -79 111 0
-38 44 -112 0
-12 45 -112 0
-10 46 -112 0
-9 73 -112 0
12 -77 112 0
-38 79 112 0
-22 -55 -113 0
30 -69 -113 0
-25 69 -113 0
27 -69 113 0
38 69 113 0
35 -74 113 0
-9 61 -114 0
14 45 114 0
11 -58 114 0
-29 42 -115 0
-19 -57 -115 0
-11 59 -115 0
-12 -60 -115 0
-10 -55 115 0
-6 -57 115 0
5 67 115 0
32 -76 115 0
37 -55 -116 0
9 68 -116 0
-20 -71 -116 0
7 41 116 0
-29 45 116 0
-40 -60 116 0
-33 68 116 0
33 68 116 0
24 78 116 0
-40 46 -117 0
-7 54 -117 0
-14 77 -117 0
-12 41 117 0
-29 41 117 0
37 43 117 0
24 -55 117 0
4 -60 117 0
20 65 117 0
-3 -69 117 0
18 70 117 0
-8 72 117 0
16 -67 -118 0
29 -67 -118 0
-35 -69 -118 0
-27 -70 118 0
-7 -74 118 0
-11 51 -119 0
-8 -53 -119 0
-11 -54 -119 0
14 62 -119 0
-7 -68 -119 0
-27 -45 119 0
37 -48 119 0
-19 -51 119 0
-32 53 119 0
-32 -64 119 0
-33 74 119 0
28 79 119 0
39 -58 -120 0
34 -73 -120 0
-19 -48 120 0
-24 54 120 0
-34 76 120 0
